# Solution for model r3_t9_m2_4
# Finished Task: 7 / 9
# Makespan: 417.0, Total Distance: 397.0, Total Time: 0.0249
# R O S F
0 0 5 0.0 0.0
1 1 6 0.0 0.0
2 2 8 0.0 0.0
3 0 -1 357.0 389.0
4 -1 -1 -1.0 -1.0
5 0 3 150.0 180.0
6 1 11 122.0 152.0
7 -1 -1 -1.0 -1.0
8 2 10 95.0 122.0
9 2 -1 349.0 379.0
10 2 9 244.0 267.0
11 1 -1 389.0 417.0
